167 300 46 44 22 16 23 42 20 19 11 27 20 42 22 34 39 24 24 13 46 33 47 48 16 22 30 22 14 14 25 21 19 22 14 31 28 27 25 39 38 26 17 48 17 31 31 47 45 48 11 42 30 48 41 39 22 23 12 28 27 27 39 36 40 45 18 19 23 33 50 11 11 19 10 18 40 34 16 37 31 18 28 12 17 19 43 31 34 45 50 10 24 40 38 15 35 48 26 50 33 26 10 34 35 13 44 26 37 12 12 19 20 33 21 29 44 16 10 27 10 50 29 26 39 16 33 25 15 50 25 38 27 27 23 13 32 19 29 18 21 34 29 33 16 43 11 50 49 13 26 10 14 45 27 46 12 11 20 19 10 37 48 29 16 22 32 38 31 